(assert (forall ((pkt_0_6_8_0  Int  )(pkt_1_7_9_0  Int  )(state_group_0_state_0_8_a_0  Int  )(state_group_1_state_0_9_b_0  Int  )(state_group_2_state_0_a_c_0  Int  )) (let ((_n0 pkt_0_6_8_0 ))
(let ((_n1 state_group_0_state_0_8_a_0 ))
(let ((_n2 (+   _n1   _n0 ) ))
(let ((_n3 false ))
(let ((_n4 pkt_1_7_9_0 ))
(let ((_n5 (=   _n4   (ite  _n3  1 0) ) ))
(let ((_n6 (not  _n5 ) ))
(let ((_n7 (ite (=  _n4  0)  (ite  _n3  1 0)   _n4  ) ))
(let ((_n8 (ite (=  (ite  _n6  1 0)  1)  _n7   (ite  _n3  1 0)  ) ))
(let ((_n9 (-  _n4 )))
(let ((_n10 (+   _n0   _n9 ) ))
(let ((_n11 (+   _n10   _n8 ) ))
(let ((_n12 (<   (ite  _n3  1 0)   _n11 ) ))
(let ((_n13 (ite  _n12   _n11   (ite  _n3  1 0)  ) ))
(let ((_n14 (+   _n1   _n13 ) ))
(let ((_n15 (ite (=  (ite  _n12  1 0)  1)  _n14   _n1  ) ))
(let ((_n16 (=   _n15   _n2 ) ))
(let ((_n18 30 ))
(let ((_n19 (<   _n4   _n18 ) ))
(let ((_n20 state_group_1_state_0_9_b_0 ))
(let ((_n21 (+   _n20   _n4 ) ))
(let ((_n22 (ite  _n19   _n21   _n20  ) ))
(let ((_n23 (+   _n18   _n9 ) ))
(let ((_n24 (<   _n20   _n23 ) ))
(let ((_n25 (ite  _n24   _n8   (ite  _n3  1 0)  ) ))
(let ((_n26 (+   _n20   _n25 ) ))
(let ((_n27 (ite (=  (ite  _n24  1 0)  1)  _n26   _n20  ) ))
(let ((_n28 (=   _n27   _n22 ) ))
(let ((_n30 state_group_2_state_0_a_c_0 ))
(let ((_n31 true ))
(let ((_n32 (+   _n30   (ite  _n31  1 0) ) ))
(let ((_n33 (ite  _n19   _n32   _n30  ) ))
(let ((_n34 (- 30) ))
(let ((_n35 (<   _n34   _n9 ) ))
(let ((_n36 (+   _n30   (ite  _n35  1 0) ) ))
(let ((_n37 (ite (=  (ite  _n35  1 0)  1)  _n36   _n30  ) ))
(let ((_n38 (=   _n37   _n33 ) ))
(let ((_n40 (=   (ite  _n3  1 0)   _n11 ) ))
(let ((_n41 (not  _n40 ) ))
(let ((_n42 (ite (=  _n11  0)  (ite  _n3  1 0)   _n11  ) ))
(let ((_n43 (ite (=  (ite  _n41  1 0)  1)  _n42   (ite  _n3  1 0)  ) ))
(let ((_n44 (=   _n43   _n0 ) ))
(let ((_n46 (=   _n8   (ite  _n3  1 0) ) ))
(let ((_n47 (not  _n46 ) ))
(let ((_n48 (ite (=  _n8  0)  (ite  _n3  1 0)   _n8  ) ))
(let ((_n49 (ite (=  (ite  _n47  1 0)  1)  _n48   (ite  _n3  1 0)  ) ))
(let ((_n50 (- 952) ))
(let ((_n51 (+   _n10   _n50 ) ))
(let ((_n52 (ite (=  _n10  952)  _n51   (ite  _n3  1 0)  ) ))
(let ((_n53 (ite (=  _n10  952)  _n52   _n49  ) ))
(let ((_n54 (=   _n53   _n4 ) ))
(implies  (and (and (>= state_group_2_state_0_a_c_0 0) (< state_group_2_state_0_a_c_0 1024 ))  (and (and (>= state_group_1_state_0_9_b_0 0) (< state_group_1_state_0_9_b_0 1024 ))  (and (and (>= state_group_0_state_0_8_a_0 0) (< state_group_0_state_0_8_a_0 1024 ))  (and (and (>= pkt_1_7_9_0 0) (< pkt_1_7_9_0 1024 ))  (and (>= pkt_0_6_8_0 0) (< pkt_0_6_8_0 1024 )) ) ) ) )   (and  _n16  _n28  _n38  _n44  _n54 )  ))))))))))))))))))))))))))))))))))))))))))))))))))))))
(check-sat)
(get-model)
(exit)